(declare-const x Int)
(declare-const term_to_project_onto12 Real)
(declare-const |tmp___0'| Int)
(declare-const term_to_project_onto6 Real)
(declare-const s Int)
(declare-const |a'| Int)
(declare-const term_to_project_onto10 Real)
(declare-const term_to_project_onto7 Real)
(declare-const |k'0| Int)
(declare-const term_to_project_onto1 Real)
(declare-const term_to_project_onto Real)
(declare-const |c'0| Int)
(declare-const |p'| Int)
(declare-const counter Int)
(declare-const term_to_project_onto4 Real)
(declare-const |r'| Int)
(declare-const term_to_project_onto8 Real)
(declare-const b Int)
(declare-const |q'| Int)
(declare-const K Int)
(declare-const |b'| Int)
(declare-const term_to_project_onto5 Real)
(declare-const v Int)
(declare-const k Int)
(declare-const |d'| Int)
(declare-const |s'| Int)
(declare-const uninterp Int)
(declare-const |v'| Int)
(declare-const |tmp___1'| Int)
(declare-const c Int)
(declare-const a Int)
(declare-const |counter'0| Int)
(declare-const |counter'| Int)
(declare-const term_to_project_onto2 Real)
(declare-const tmp___0 Int)
(declare-const term_to_project_onto3 Real)
(declare-const |tmp'| Int)
(declare-const |tmp'0| Int)
(declare-const p Int)
(declare-const |tmp___0'0| Int)
(declare-const r Int)
(declare-const q Int)
(declare-const uninterp0 Int)
(declare-const tmp Int)
(declare-const |c'| Int)
(declare-const tmp___1 Int)
(declare-const |d'0| Int)
(declare-const term_to_project_onto0 Real)
(declare-const d Int)
(declare-const |v'0| Int)
(declare-const |k'| Int)
(declare-const term_to_project_onto11 Real)
(declare-const y Int)
(declare-const term_to_project_onto9 Real)
(assert (and (<= (- counter) 0) (<= (+ (- y) 1) 0) (<= (+ (- x) 1) 0)
               (<= (+ counter -49) 0) (or (<= (+ b 1) 0) (<= (+ (- b) 1) 0))
               (<= (+ |counter'0| (* -50 K) (- counter) -1) 0)
               (<= (+ (- |counter'0|) (* 2 K) counter 1) 0)
               (<= (+ (- |k'0|) |counter'0| (- K) (- counter) -1) 0)
               (or (and (= K 0) (= (+ (- |tmp___0'0|) tmp___0) 0)
                          (= (+ (- |tmp'0|) tmp) 0) (= (+ (- |v'0|) v) 0)
                          (= (+ (- |d'0|) d) 0) (= (- |k'0|) 0)
                          (= (+ (- |c'0|) a) 0)
                          (= (+ (- |counter'0|) counter 1) 0))
                     (and (<= (+ (- K) 1) 0) (<= (+ counter -48) 0)
                            (<= (+ (- a) b) 0) (<= (- counter) 0)
                            (<= (+ (- y) 1) 0) (<= (+ (- x) 1) 0)
                            (= (+ |tmp'0| (- |counter'0|) 1) 0)
                            (<= (+ (- |c'0|) (- |v'0|) b) 0)
                            (<= (+ |counter'0| -51) 0)
                            (<= (+ (- |d'0|) (- |tmp___0'0|) |counter'0| -1) 0)
                            (<= (+ |d'0| (- |k'0|)) 0)
                            (<= (+ (- |tmp___0'0|) 1) 0) (<= (- |c'0|) 0)
                            (<= (+ |tmp___0'0| (- |counter'0|) 2) 0)
                            (<= (+ (- y) 1) 0) (<= (+ (- x) 1) 0)))
               (<= (- K) 0) (<= (- |k'0|) 0) (<= (+ (- |counter'0|) 1) 0)
               (<= (+ (- y) 1) 0) (<= (+ (- x) 1) 0)
               (or (and (<= (+ |counter'0| -49) 0) (<= (+ |c'0| (- b) 1) 0))
                     (<= (+ (- |counter'0|) 50) 0))
               (= (+ |tmp___1'| (- counter)) 0)
               (= (+ |tmp___0'| (- |counter'0|)) 0)
               (= (+ |tmp'| (- |tmp'0|)) 0) (= (+ |v'| (- |v'0|)) 0)
               (= (+ |d'| (- |d'0|)) 0) (= (+ |k'| (- |k'0|)) 0)
               (= (+ |c'| (- |c'0|)) 0) (= (+ (- r) |s'| uninterp) 0)
               (= (+ |r'| (- s)) 0) (= (+ (- p) |q'| uninterp0) 0)
               (= (+ |p'| (- q)) 0) (= (+ |b'| (- |c'0|)) 0)
               (= (+ |a'| (- b)) 0) (= (+ |counter'| (- |counter'0|) -1) 0)
               (= term_to_project_onto12 (+ |counter'| (- counter)))
               (= term_to_project_onto11 (+ |a'| (- a)))
               (= term_to_project_onto10 (+ |b'| (- b)))
               (= term_to_project_onto9 (+ |p'| (- p)))
               (= term_to_project_onto8 (+ |q'| (- q)))
               (= term_to_project_onto7 (+ |r'| (- r)))
               (= term_to_project_onto6 (+ |s'| (- s)))
               (= term_to_project_onto5 (+ |c'| (- c)))
               (= term_to_project_onto4 (+ |k'| (- k)))
               (= term_to_project_onto3 (+ |d'| (- d)))
               (= term_to_project_onto2 (+ |v'| (- v)))
               (= term_to_project_onto1 (+ |tmp'| (- tmp)))
               (= term_to_project_onto0 (+ |tmp___0'| (- tmp___0)))
               (= term_to_project_onto (+ |tmp___1'| (- tmp___1)))))
(check-sat)
